Problem:    produzione
Rows:       85
Columns:    48
Non-zeros:  190
Status:     OPTIMAL
Objective:  z = 5429500 (MINimum)

   No.   Row name   St   Activity     Lower bound   Upper bound    Marginal
------ ------------ -- ------------- ------------- ------------- -------------
     1 Stock1[1]    NS             0            -0             =           -80 
     2 Stock1[2]    NS             0            -0             =          -195 
     3 Stock[1,2]   NS         -1800         -1800             =          -125 
     4 Stock[1,3]   NS         -1700         -1700             =          -140 
     5 Stock[1,4]   NS         -1800         -1800             =          -140 
     6 Stock[1,5]   NS         -1800         -1800             =          -150 
     7 Stock[1,6]   NS         -1900         -1900             =          -170 
     8 Stock[1,7]   NS         -2300         -2300             =          -180 
     9 Stock[1,8]   NS         -2500         -2500             =          -190 
    10 Stock[1,9]   NS         -2500         -2500             =          -200 
    11 Stock[1,10]  NS         -2000         -2000             =          -135 
    12 Stock[1,11]  NS         -1800         -1800             =          -145 
    13 Stock[1,12]  NS         -1700         -1700             =          -160 
    14 Stock[2,2]   NS          -500          -500             =          -240 
    15 Stock[2,3]   NS          -400          -400             =          -245 
    16 Stock[2,4]   NS          -500          -500             =          -230 
    17 Stock[2,5]   NS          -600          -600             =          -230 
    18 Stock[2,6]   NS          -700          -700             =          -250 
    19 Stock[2,7]   NS          -800          -800             =          -260 
    20 Stock[2,8]   NS          -900          -900             =          -270 
    21 Stock[2,9]   NS         -1000         -1000             =          -280 
    22 Stock[2,10]  NS          -800          -800             =          -225 
    23 Stock[2,11]  NS          -800          -800             =          -235 
    24 Stock[2,12]  NS          -800          -800             =          -270 
    25 Demand[1,1]  B              0            -0               
    26 Demand[1,2]  B              0            -0               
    27 Demand[1,3]  B              0            -0               
    28 Demand[1,4]  B              0            -0               
    29 Demand[1,5]  B            700            -0               
    30 Demand[1,6]  B           1250            -0               
    31 Demand[1,7]  B           1500            -0               
    32 Demand[1,8]  B           1300            -0               
    33 Demand[1,9]  B              0            -0               
    34 Demand[1,10] B              0            -0               
    35 Demand[1,11] B              0            -0               
    36 Demand[2,1]  B              0            -0               
    37 Demand[2,2]  B              0            -0               
    38 Demand[2,3]  B              0            -0               
    39 Demand[2,4]  B              0            -0               
    40 Demand[2,5]  B            100            -0               
    41 Demand[2,6]  B            400            -0               
    42 Demand[2,7]  B            600            -0               
    43 Demand[2,8]  B            600            -0               
    44 Demand[2,9]  B              0            -0               
    45 Demand[2,10] B              0            -0               
    46 Demand[2,11] B            100            -0               
    47 DemandDecember[1]
                    NL          2000          2000                         200 
    48 DemandDecember[2]
                    NL          1000          1000                         310 
    49 ProdCapacity[1,1]
                    B           1800                        2400 
    50 ProdCapacity[1,2]
                    B           1700                        2300 
    51 ProdCapacity[1,3]
                    B           1800                        2500 
    52 ProdCapacity[1,4]
                    B           2500                        2500 
    53 ProdCapacity[1,5]
                    NU          2450                        2450           -40 
    54 ProdCapacity[1,6]
                    NU          2550                        2550           -60 
    55 ProdCapacity[1,7]
                    NU          2300                        2300           -90 
    56 ProdCapacity[1,8]
                    NU          1200                        1200           -30 
    57 ProdCapacity[1,9]
                    B           2000                        2200 
    58 ProdCapacity[1,10]
                    B           1800                        2500 
    59 ProdCapacity[1,11]
                    B           1900                        2500 
    60 ProdCapacity[1,12]
                    NU          1800                        1800           -25 
    61 ProdCapacity[2,1]
                    B            500                        1000 
    62 ProdCapacity[2,2]
                    B            400                         900 
    63 ProdCapacity[2,3]
                    B            500                        1000 
    64 ProdCapacity[2,4]
                    B            700                        1000 
    65 ProdCapacity[2,5]
                    NU          1000                        1000           -25 
    66 ProdCapacity[2,6]
                    NU          1000                        1000           -40 
    67 ProdCapacity[2,7]
                    NU           900                         900           -55 
    68 ProdCapacity[2,8]
                    NU           400                         400           -40 
    69 ProdCapacity[2,9]
                    B            800                        1000 
    70 ProdCapacity[2,10]
                    B            900                        1000 
    71 ProdCapacity[2,11]
                    NU          1000                        1000           -30 
    72 ProdCapacity[2,12]
                    NU           700                         700           -60 
    73 Capacity[1]  B              0                        2100 
    74 Capacity[2]  B              0                        2100 
    75 Capacity[3]  B              0                        2100 
    76 Capacity[4]  B              0                        2100 
    77 Capacity[5]  B            800                        2100 
    78 Capacity[6]  B           1650                        2100 
    79 Capacity[7]  B           2100                        2100 
    80 Capacity[8]  B           1900                        2100 
    81 Capacity[9]  B              0                        2100 
    82 Capacity[10] B              0                        2100 
    83 Capacity[11] B            100                        2100 
    84 Capacity[12] B            500                        2100 
    85 z            B     5.4295e+06                             

   No. Column name  St   Activity     Lower bound   Upper bound    Marginal
------ ------------ -- ------------- ------------- ------------- -------------
     1 x[1,1]       B           1800             0               
     2 x[1,2]       B           1700             0               
     3 x[1,3]       B           1800             0               
     4 x[1,4]       B           2500             0               
     5 x[1,5]       B           2450             0               
     6 x[1,6]       B           2550             0               
     7 x[1,7]       B           2300             0               
     8 x[1,8]       B           1200             0               
     9 x[1,9]       B           2000             0               
    10 x[1,10]      B           1800             0               
    11 x[1,11]      B           1900             0               
    12 x[2,1]       B            500             0               
    13 x[2,2]       B            400             0               
    14 x[2,3]       B            500             0               
    15 x[2,4]       B            700             0               
    16 x[2,5]       B           1000             0               
    17 x[2,6]       B           1000             0               
    18 x[2,7]       B            900             0               
    19 x[2,8]       B            400             0               
    20 x[2,9]       B            800             0               
    21 x[2,10]      B            900             0               
    22 x[2,11]      B           1000             0               
    23 x[1,12]      B           1800             0               
    24 x[2,12]      B            700             0               
    25 s[1,1]       B              0             0               
    26 s[2,1]       B              0             0               
    27 s[1,2]       NL             0             0                          30 
    28 s[1,3]       NL             0             0                          40 
    29 s[1,4]       NL             0             0                          15 
    30 s[1,5]       B            700             0               
    31 s[1,6]       B           1250             0               
    32 s[1,7]       B           1500             0               
    33 s[1,8]       B           1300             0               
    34 s[1,9]       NL             0             0                          80 
    35 s[1,10]      NL             0             0                          15 
    36 s[1,11]      NL             0             0                          20 
    37 s[1,12]      B            200             0               
    38 s[2,2]       NL             0             0                          40 
    39 s[2,3]       NL             0             0                          55 
    40 s[2,4]       NL             0             0                          25 
    41 s[2,5]       B            100             0               
    42 s[2,6]       B            400             0               
    43 s[2,7]       B            600             0               
    44 s[2,8]       B            600             0               
    45 s[2,9]       NL             0             0                          70 
    46 s[2,10]      NL             0             0                          15 
    47 s[2,11]      B            100             0               
    48 s[2,12]      B            300             0               

Karush-Kuhn-Tucker optimality conditions:

KKT.PE: max.abs.err = 0.00e+00 on row 0
        max.rel.err = 0.00e+00 on row 0
        High quality

KKT.PB: max.abs.err = 0.00e+00 on row 0
        max.rel.err = 0.00e+00 on row 0
        High quality

KKT.DE: max.abs.err = 0.00e+00 on column 0
        max.rel.err = 0.00e+00 on column 0
        High quality

KKT.DB: max.abs.err = 0.00e+00 on row 0
        max.rel.err = 0.00e+00 on row 0
        High quality

End of output
